db/data/321607445248571739232460122972354213129.z3.out
sat
-------------------
275.718746924
